170 127 85 172 184 69 136 104 1 130 107 44 158 164 82 155 148 100 99 52 26 185 75 179 21 194 40 54 36 191 0 144 30 93 167 143 97 117 94 74 189 102 122 109 46 120 192 3 29 66 14 176 39 113 98 141 161 49 76 24 56 198 28 10 195 131 149 177 159 174 79 27 133 129 55 18 50 132 121 182 38 126 7 67 20 77 37 110 42 123 103 92 157 106 61 72 101 105 33 35 47 6 150 12 9 13 17 162 32 4 96 23 5 95 62 151 145 11 153 183 111 175 43 160 84 86 193 146 142 181 19 134 166 91 124 173 78 165 196 140 154 115 118 187 22 168 186 25 147 199 8 70 71 138 137 89 178 31 171 114 41 81 128 51 188 163 135 125 83 68 58 156 88 2 65 15 73 90 180 53 60 152 63 116 45 119 190 139 16 48 197 112 64 108 87 169 57 59 34 80 

